pair_style eam/alloy
pair_coeff * * Al_zhou.eam.alloy Al
