pair_style lj/cut 8.0
pair_coeff 1 1 0.4970 2.266
