pair_style morse 9.0
pair_coeff 1 1 0.4174 1.3885 2.845
