pair_style lj/cut 8.5
pair_coeff 1 1 0.3902 2.626
