pair_style morse 9.5
pair_coeff 1 1 0.2703 1.1646 3.253
