pair_style meam
pair_coeff * * library.meam AlS SiS MgS CuS FeS AlSiMgCuFe.meam FeS
