pair_style tersoff
pair_coeff * * Ge.tersoff Ge
