pair_style snap
pair_coeff * * Ge_Zuo_JPCA2020.snapcoeff Ge_Zuo_JPCA2020.snapparam Ge
