LAMMPS data file via write_data, version 4 Jul 2026, timestep = 15, units = metal

865 atoms
1 atom types

-12.24495 12.24495 xlo xhi
-12.24495 12.24495 ylo yhi
-12.24495 12.24495 zlo zhi

Masses

1 26.982

Atoms # atomic

1 1 -11.22351381032014 -11.224537499999999 -11.2245375 0 0 0
2 1 -9.1837125 -9.184736189679858 -11.2245375 0 0 0
3 1 -9.1837125 -11.2245375 -9.184736189679858 0 0 0
4 1 -11.223393075066493 -9.184856924933507 -9.184856924933507 0 0 0
5 1 -7.143911189679858 -11.224537499999999 -11.2245375 0 0 0
8 1 -7.144031924933507 -9.184856924933507 -9.184856924933507 0 0 0
25 1 -11.223315806872765 -7.14476828151704 -11.2245375 0 0 0
27 1 -9.1837125 -7.144768281517039 -9.184934193127235 0 0 0
29 1 -7.144109193127235 -7.14476828151704 -11.224537499999999 0 0 0
145 1 -11.223315806872764 -11.2245375 -7.144768281517039 0 0 0
146 1 -9.1837125 -9.184934193127235 -7.144768281517039 0 0 0
149 1 -7.144109193127235 -11.2245375 -7.144768281517038 0 0 0
169 1 -11.222862572078105 -7.1452245886382455 -7.1452245886382455 0 0 0
173 1 -7.144562427921894 -7.1452245886382455 -7.1452245886382455 0 0 0
6 1 -5.10394328151704 -9.184934193127235 -11.224537499999999 0 0 0
7 1 -5.103943281517039 -11.224537499999999 -9.184934193127235 0 0 0
9 1 -3.0633633770464357 -11.2245375 -11.2245375 0 0 0
10 1 -1.0223943340850503 -9.185394157119914 -11.2245375 0 0 0
11 1 -1.02239433408505 -11.2245375 -9.185394157119914 0 0 0
12 1 -3.0635952299227713 -9.185337375004481 -9.185337375004481 0 0 0
31 1 -5.1043995886382465 -7.145224588638246 -9.185387427921894 0 0 0
33 1 -3.0636861183820225 -7.145333744210468 -11.2245375 0 0 0
35 1 -1.0228827143720642 -7.146236421020256 -9.18644088669916 0 0 0
150 1 -5.104399588638246 -9.185387427921894 -7.145224588638246 0 0 0
153 1 -3.063686118382023 -11.224537499999999 -7.145333744210468 0 0 0
154 1 -1.0228827143720642 -9.18644088669916 -7.146236421020256 0 0 0
177 1 -3.064815604935659 -7.146723619890794 -7.1467236198907935 0 0 0
13 1 1.019223223841422 -11.2245375 -11.224537499999999 0 0 0
14 1 3.0612375000000003 -9.185841569447408 -11.224537499999999 0 0 0
15 1 3.0612374999999994 -11.224537499999999 -9.185841569447408 0 0 0
16 1 1.019082903844351 -9.185970118350442 -9.185970118350442 0 0 0
17 1 5.103251776158578 -11.224537499999999 -11.2245375 0 0 0
20 1 5.103392096155649 -9.185970118350442 -9.185970118350442 0 0 0
37 1 1.019187337423695 -7.145957597547121 -11.2245375 0 0 0
39 1 3.0612375 -7.147229097325572 -9.187384984823145 0 0 0
41 1 5.103287662576305 -7.145957597547121 -11.2245375 0 0 0
157 1 1.0191873374236948 -11.224537499999999 -7.145957597547121 0 0 0
158 1 3.0612375 -9.187384984823145 -7.147229097325572 0 0 0
161 1 5.103287662576305 -11.224537499999999 -7.145957597547121 0 0 0
181 1 1.017989077318909 -7.148601545449317 -7.148601545449317 0 0 0
185 1 5.10448592268109 -7.148601545449317 -7.148601545449318 0 0 0
18 1 7.14486933408505 -9.185394157119914 -11.2245375 0 0 0
19 1 7.14486933408505 -11.224537499999999 -9.185394157119916 0 0 0
21 1 9.185838377046435 -11.2245375 -11.2245375 0 0 0
22 1 11.226418281517038 -9.184934193127235 -11.2245375 0 0 0
23 1 11.226418281517038 -11.224537499999999 -9.184934193127235 0 0 0
24 1 9.186070229922771 -9.185337375004481 -9.185337375004481 0 0 0
43 1 7.1453577143720635 -7.146236421020256 -9.18644088669916 0 0 0
45 1 9.186161118382023 -7.145333744210468 -11.2245375 0 0 0
47 1 11.226874588638246 -7.1452245886382455 -9.185387427921896 0 0 0
162 1 7.1453577143720635 -9.18644088669916 -7.146236421020256 0 0 0
165 1 9.186161118382023 -11.2245375 -7.145333744210468 0 0 0
166 1 11.226874588638244 -9.185387427921896 -7.1452245886382455 0 0 0
189 1 9.187290604935658 -7.1467236198907935 -7.1467236198907935 0 0 0
26 1 -9.1837125 -5.104188377046436 -11.2245375 0 0 0
28 1 -11.222912624995518 -5.104420229922771 -9.185337375004481 0 0 0
32 1 -7.144512375004481 -5.104420229922771 -9.18533737500448 0 0 0
49 1 -11.222855842880085 -3.06321933408505 -11.2245375 0 0 0
50 1 -9.1837125 -1.0216017761585778 -11.2245375 0 0 0
51 1 -9.1837125 -3.06321933408505 -9.185394157119914 0 0 0
52 1 -11.222279881649557 -1.0217420961556498 -9.185970118350443 0 0 0
53 1 -7.144569157119914 -3.06321933408505 -11.2245375 0 0 0
56 1 -7.145145118350443 -1.0217420961556494 -9.185970118350442 0 0 0
170 1 -9.1837125 -5.104511118382023 -7.145333744210467 0 0 0
193 1 -11.22180911330084 -3.0637077143720646 -7.146236421020255 0 0 0
194 1 -9.183712499999999 -1.0216376625763053 -7.14595759754712 0 0 0
197 1 -7.14561588669916 -3.063707714372064 -7.146236421020256 0 0 0
30 1 -5.104508744210468 -5.104511118382023 -11.2245375 0 0 0
34 1 -1.022626562017888 -5.104957562676047 -11.224537499999999 0 0 0
36 1 -3.0644932936894476 -5.1053182936894475 -9.186640768506022 0 0 0
54 1 -5.105132597547121 -1.0216376625763048 -11.2245375 0 0 0
55 1 -5.105411421020256 -3.063707714372064 -9.18644088669916 0 0 0
57 1 -3.0641325626760474 -3.0634515620178875 -11.2245375 0 0 0
58 1 -1.0219648581933882 -1.0212259653780975 -11.224537499999999 0 0 0
59 1 -1.0234208652608328 -3.064245865260833 -9.188162154899606 0 0 0
60 1 -3.0653759350593517 -1.0220182531219295 -9.18804813617866 0 0 0
174 1 -5.1058986198907945 -5.105640604935659 -7.146723619890794 0 0 0
178 1 -1.0249697065618293 -5.108061649413865 -7.149877398761965 0 0 0
198 1 -5.107776545449317 -1.0228359226810912 -7.148601545449317 0 0 0
201 1 -3.0672366494138643 -3.0657947065618294 -7.149877398761965 0 0 0
202 1 -1.0276102600593968 -1.024152151410375 -7.153569264946395 0 0 0
38 1 3.0612375000000003 -5.1045605556693205 -11.2245375 0 0 0
40 1 1.0188067468780713 -5.106200935059352 -9.18804813617866 0 0 0
44 1 5.103668253121929 -5.106200935059352 -9.18804813617866 0 0 0
61 1 1.0195990346219028 -3.0627898581933874 -11.224537499999999 0 0 0
62 1 3.0612375 -1.0209972580805295 -11.2245375 0 0 0
63 1 3.0612375 -3.0634091802123846 -9.186891825063972 0 0 0
64 1 1.0194868687007281 -1.0213381312992726 -9.186360462834175 0 0 0
65 1 5.102875965378097 -3.0627898581933874 -11.2245375 0 0 0
68 1 5.102988131299272 -1.0213381312992722 -9.186360462834177 0 0 0
182 1 3.0612375 -5.111840653609368 -7.152953570670775 0 0 0
205 1 1.016672848589626 -3.0684352600593967 -7.153569264946395 0 0 0
206 1 3.0612374999999994 -1.0215259183896208 -7.147764503228058 0 0 0
209 1 5.105802151410375 -3.0684352600593976 -7.153569264946395 0 0 0
42 1 7.145101562017888 -5.104957562676047 -11.2245375 0 0 0
46 1 11.226983744210466 -5.104511118382023 -11.2245375 0 0 0
48 1 9.186968293689446 -5.105318293689447 -9.186640768506022 0 0 0
66 1 7.144439858193388 -1.0212259653780973 -11.2245375 0 0 0
67 1 7.145895865260833 -3.0642458652608324 -9.188162154899608 0 0 0
69 1 9.186607562676047 -3.063451562017889 -11.2245375 0 0 0
70 1 11.227607597547122 -1.021637662576305 -11.2245375 0 0 0
71 1 11.227886421020255 -3.063707714372064 -9.18644088669916 0 0 0
72 1 9.187850935059352 -1.0220182531219297 -9.18804813617866 0 0 0
186 1 7.147444706561829 -5.108061649413865 -7.149877398761965 0 0 0
190 1 11.228373619890794 -5.105640604935659 -7.1467236198907935 0 0 0
210 1 7.150085260059397 -1.0241521514103744 -7.153569264946395 0 0 0
213 1 9.189711649413864 -3.0657947065618294 -7.149877398761966 0 0 0
214 1 11.230251545449317 -1.0228359226810912 -7.148601545449317 0 0 0
73 1 -11.22240843055259 1.0204124999999997 -11.2245375 0 0 0
74 1 -9.183712499999999 3.0624267761585777 -11.2245375 0 0 0
75 1 -9.1837125 1.0204125000000002 -9.185841569447408 0 0 0
76 1 -11.222279881649557 3.0625670961556493 -9.185970118350442 0 0 0
77 1 -7.145016569447409 1.0204125000000002 -11.224537499999999 0 0 0
80 1 -7.145145118350443 3.0625670961556493 -9.185970118350442 0 0 0
97 1 -11.222855842880085 5.104044334085049 -11.224537499999999 0 0 0
99 1 -9.183712499999999 5.10404433408505 -9.185394157119914 0 0 0
101 1 -7.144569157119914 5.104044334085049 -11.224537499999999 0 0 0
217 1 -11.220865015176855 1.0204125 -7.147229097325572 0 0 0
218 1 -9.1837125 3.062462662576305 -7.145957597547121 0 0 0
221 1 -7.146559984823146 1.0204124999999997 -7.147229097325572 0 0 0
241 1 -11.22180911330084 5.104532714372064 -7.146236421020256 0 0 0
245 1 -7.145615886699161 5.104532714372064 -7.146236421020255 0 0 0
78 1 -5.105132597547121 3.0624626625763045 -11.224537499999999 0 0 0
79 1 -5.106404097325572 1.0204125 -9.187384984823145 0 0 0
81 1 -3.063735555669321 1.0204125 -11.224537499999999 0 0 0
82 1 -1.0219648581933876 3.0620509653780976 -11.2245375 0 0 0
83 1 -1.0225841802123845 1.0204124999999995 -9.18689182506397 0 0 0
84 1 -3.065375935059352 3.0628432531219283 -9.18804813617866 0 0 0
103 1 -5.105411421020256 5.104532714372064 -9.18644088669916 0 0 0
105 1 -3.064132562676047 5.104276562017887 -11.224537499999999 0 0 0
107 1 -1.023420865260833 5.105070865260833 -9.188162154899606 0 0 0
222 1 -5.107776545449317 3.0636609226810907 -7.148601545449317 0 0 0
225 1 -3.0710156536093685 1.0204125000000002 -7.152953570670775 0 0 0
226 1 -1.027610260059397 3.064977151410374 -7.153569264946395 0 0 0
249 1 -3.0672366494138643 5.106619706561829 -7.149877398761965 0 0 0
85 1 1.0198277419194706 1.0204125 -11.2245375 0 0 0
86 1 3.0612375000000003 3.0618222580805288 -11.224537499999999 0 0 0
87 1 3.0612375000000003 1.0204125000000004 -9.18569286398708 0 0 0
88 1 1.0194868687007288 3.0621631312992714 -9.186360462834177 0 0 0
89 1 5.102647258080529 1.0204124999999997 -11.2245375 0 0 0
92 1 5.102988131299272 3.0621631312992714 -9.186360462834177 0 0 0
109 1 1.0195990346219022 5.103614858193387 -11.224537499999999 0 0 0
111 1 3.0612375000000003 5.104234180212384 -9.186891825063972 0 0 0
113 1 5.1028759653780975 5.103614858193387 -11.2245375 0 0 0
229 1 1.0192990816103793 1.0204125 -7.147764503228058 0 0 0
230 1 3.0612375 3.0623509183896203 -7.147764503228058 0 0 0
233 1 5.103175918389621 1.0204124999999997 -7.147764503228058 0 0 0
253 1 1.0166728485896255 5.109260260059396 -7.153569264946395 0 0 0
257 1 5.105802151410374 5.109260260059397 -7.153569264946395 0 0 0
90 1 7.144439858193388 3.062050965378097 -11.2245375 0 0 0
91 1 7.145059180212384 1.0204125000000002 -9.186891825063972 0 0 0
93 1 9.18621055566932 1.0204125 -11.2245375 0 0 0
94 1 11.227607597547122 3.062462662576305 -11.224537499999999 0 0 0
95 1 11.22887909732557 1.0204125 -9.187384984823145 0 0 0
96 1 9.18785093505935 3.0628432531219287 -9.18804813617866 0 0 0
115 1 7.145895865260833 5.105070865260831 -9.188162154899606 0 0 0
117 1 9.186607562676047 5.104276562017888 -11.2245375 0 0 0
119 1 11.227886421020255 5.1045327143720645 -9.18644088669916 0 0 0
234 1 7.150085260059398 3.0649771514103743 -7.153569264946395 0 0 0
237 1 9.193490653609368 1.0204124999999997 -7.152953570670776 0 0 0
238 1 11.230251545449317 3.0636609226810902 -7.148601545449317 0 0 0
261 1 9.189711649413864 5.106619706561829 -7.149877398761965 0 0 0
98 1 -9.183712499999999 7.1450133770464355 -11.2245375 0 0 0
100 1 -11.22291262499552 7.145245229922771 -9.185337375004481 0 0 0
104 1 -7.144512375004481 7.145245229922771 -9.185337375004481 0 0 0
121 1 -11.223315806872764 9.185593281517038 -11.2245375 0 0 0
122 1 -9.183712499999999 11.225561189679858 -11.224537499999999 0 0 0
123 1 -9.183712499999999 9.18559328151704 -9.184934193127235 0 0 0
124 1 -11.223393075066493 11.225681924933506 -9.184856924933507 0 0 0
125 1 -7.144109193127235 9.18559328151704 -11.224537499999999 0 0 0
128 1 -7.144031924933508 11.225681924933506 -9.184856924933507 0 0 0
242 1 -9.1837125 7.145336118382022 -7.145333744210467 0 0 0
265 1 -11.222862572078105 9.186049588638246 -7.1452245886382455 0 0 0
266 1 -9.1837125 11.225759193127233 -7.14476828151704 0 0 0
269 1 -7.144562427921894 9.186049588638245 -7.1452245886382455 0 0 0
102 1 -5.1045087442104675 7.145336118382022 -11.224537499999999 0 0 0
106 1 -1.0226265620178883 7.145782562676046 -11.224537499999999 0 0 0
108 1 -3.064493293689448 7.1461432936894465 -9.18664076850602 0 0 0
126 1 -5.10394328151704 11.225759193127235 -11.2245375 0 0 0
127 1 -5.1043995886382465 9.186049588638245 -9.185387427921894 0 0 0
129 1 -3.063686118382023 9.186158744210468 -11.224537499999999 0 0 0
130 1 -1.02239433408505 11.226219157119914 -11.224537499999999 0 0 0
131 1 -1.022882714372064 9.187061421020257 -9.18644088669916 0 0 0
132 1 -3.06359522992277 11.226162375004481 -9.185337375004481 0 0 0
246 1 -5.105898619890794 7.14646560493566 -7.146723619890793 0 0 0
250 1 -1.0249697065618293 7.148886649413864 -7.149877398761965 0 0 0
270 1 -5.104399588638246 11.226212427921894 -7.1452245886382455 0 0 0
273 1 -3.064815604935659 9.187548619890793 -7.1467236198907935 0 0 0
274 1 -1.0228827143720636 11.22726588669916 -7.146236421020256 0 0 0
110 1 3.0612375000000003 7.14538555566932 -11.224537499999999 0 0 0
112 1 1.018806746878071 7.147025935059351 -9.18804813617866 0 0 0
116 1 5.103668253121928 7.147025935059351 -9.18804813617866 0 0 0
133 1 1.0191873374236946 9.186782597547122 -11.224537499999999 0 0 0
134 1 3.0612374999999994 11.226666569447408 -11.2245375 0 0 0
135 1 3.0612375 9.18805409732557 -9.187384984823145 0 0 0
136 1 1.0190829038443494 11.226795118350442 -9.185970118350443 0 0 0
137 1 5.103287662576305 9.18678259754712 -11.2245375 0 0 0
140 1 5.10339209615565 11.226795118350442 -9.185970118350442 0 0 0
254 1 3.0612375000000003 7.152665653609368 -7.152953570670776 0 0 0
277 1 1.0179890773189086 9.189426545449317 -7.148601545449317 0 0 0
278 1 3.0612375 11.228209984823144 -7.147229097325571 0 0 0
281 1 5.104485922681091 9.189426545449317 -7.148601545449317 0 0 0
114 1 7.145101562017888 7.145782562676047 -11.2245375 0 0 0
118 1 11.226983744210468 7.145336118382023 -11.2245375 0 0 0
120 1 9.186968293689448 7.146143293689447 -9.186640768506022 0 0 0
138 1 7.14486933408505 11.226219157119914 -11.224537499999999 0 0 0
139 1 7.1453577143720635 9.187061421020257 -9.18644088669916 0 0 0
141 1 9.186161118382023 9.186158744210468 -11.2245375 0 0 0
142 1 11.22641828151704 11.225759193127233 -11.2245375 0 0 0
143 1 11.226874588638246 9.186049588638246 -9.185387427921894 0 0 0
144 1 9.18607022992277 11.226162375004481 -9.185337375004481 0 0 0
258 1 7.147444706561829 7.148886649413864 -7.149877398761965 0 0 0
262 1 11.228373619890792 7.146465604935659 -7.1467236198907935 0 0 0
282 1 7.1453577143720635 11.22726588669916 -7.146236421020255 0 0 0
285 1 9.187290604935658 9.187548619890793 -7.1467236198907935 0 0 0
286 1 11.226874588638246 11.226212427921894 -7.145224588638246 0 0 0
147 1 -9.183712499999999 -11.224537499999999 -5.104188377046436 0 0 0
148 1 -11.222912624995518 -9.185337375004481 -5.104420229922772 0 0 0
152 1 -7.144512375004481 -9.185337375004481 -5.104420229922771 0 0 0
171 1 -9.1837125 -7.145333744210467 -5.104511118382023 0 0 0
289 1 -11.222855842880085 -11.2245375 -3.06321933408505 0 0 0
290 1 -9.183712499999999 -9.185394157119914 -3.0632193340850504 0 0 0
291 1 -9.183712499999999 -11.2245375 -1.0216017761585778 0 0 0
292 1 -11.222279881649557 -9.185970118350442 -1.0217420961556496 0 0 0
293 1 -7.144569157119914 -11.224537499999999 -3.06321933408505 0 0 0
296 1 -7.145145118350443 -9.185970118350442 -1.0217420961556503 0 0 0
313 1 -11.22180911330084 -7.146236421020255 -3.063707714372064 0 0 0
315 1 -9.1837125 -7.145957597547121 -1.0216376625763053 0 0 0
317 1 -7.14561588669916 -7.146236421020256 -3.0637077143720646 0 0 0
151 1 -5.104508744210468 -11.224537499999999 -5.104511118382022 0 0 0
155 1 -1.022626562017888 -11.2245375 -5.104957562676047 0 0 0
156 1 -3.064493293689447 -9.186640768506022 -5.105318293689448 0 0 0
175 1 -5.1058986198907945 -7.1467236198907935 -5.105640604935659 0 0 0
179 1 -1.0249697065618295 -7.149877398761965 -5.108061649413864 0 0 0
294 1 -5.105411421020256 -9.18644088669916 -3.063707714372064 0 0 0
295 1 -5.105132597547121 -11.2245375 -1.021637662576305 0 0 0
297 1 -3.064132562676047 -11.2245375 -3.0634515620178884 0 0 0
298 1 -1.0234208652608325 -9.188162154899606 -3.0642458652608333 0 0 0
299 1 -1.0219648581933876 -11.2245375 -1.021225965378098 0 0 0
300 1 -3.065375935059352 -9.18804813617866 -1.0220182531219288 0 0 0
319 1 -5.107776545449316 -7.148601545449317 -1.022835922681091 0 0 0
321 1 -3.0672366494138643 -7.149877398761965 -3.0657947065618294 0 0 0
323 1 -1.0276102600593975 -7.153569264946396 -1.0241521514103746 0 0 0
159 1 3.0612375000000003 -11.224537499999999 -5.1045605556693205 0 0 0
160 1 1.018806746878071 -9.18804813617866 -5.106200935059352 0 0 0
164 1 5.103668253121929 -9.18804813617866 -5.106200935059352 0 0 0
183 1 3.0612375 -7.152953570670775 -5.111840653609368 0 0 0
301 1 1.019599034621902 -11.2245375 -3.062789858193388 0 0 0
302 1 3.0612375000000003 -9.18689182506397 -3.0634091802123846 0 0 0
303 1 3.0612374999999994 -11.2245375 -1.0209972580805289 0 0 0
304 1 1.0194868687007284 -9.186360462834177 -1.0213381312992722 0 0 0
305 1 5.1028759653780975 -11.224537499999999 -3.0627898581933883 0 0 0
308 1 5.102988131299272 -9.186360462834177 -1.021338131299272 0 0 0
325 1 1.0166728485896255 -7.153569264946395 -3.068435260059397 0 0 0
327 1 3.0612375000000007 -7.147764503228058 -1.0215259183896208 0 0 0
329 1 5.105802151410375 -7.153569264946395 -3.0684352600593967 0 0 0
163 1 7.145101562017888 -11.2245375 -5.104957562676047 0 0 0
167 1 11.226983744210468 -11.224537499999999 -5.104511118382023 0 0 0
168 1 9.186968293689448 -9.186640768506022 -5.105318293689448 0 0 0
187 1 7.147444706561829 -7.149877398761965 -5.108061649413865 0 0 0
191 1 11.228373619890792 -7.146723619890794 -5.105640604935659 0 0 0
306 1 7.145895865260832 -9.188162154899608 -3.064245865260833 0 0 0
307 1 7.144439858193388 -11.2245375 -1.021225965378098 0 0 0
309 1 9.186607562676047 -11.2245375 -3.063451562017888 0 0 0
310 1 11.227886421020255 -9.18644088669916 -3.0637077143720646 0 0 0
311 1 11.22760759754712 -11.2245375 -1.0216376625763053 0 0 0
312 1 9.18785093505935 -9.18804813617866 -1.022018253121929 0 0 0
331 1 7.150085260059397 -7.153569264946395 -1.0241521514103744 0 0 0
333 1 9.189711649413864 -7.149877398761965 -3.06579470656183 0 0 0
335 1 11.230251545449317 -7.148601545449317 -1.022835922681091 0 0 0
172 1 -11.221609231493977 -5.1053182936894475 -5.1053182936894475 0 0 0
176 1 -7.145815768506022 -5.1053182936894475 -5.105318293689448 0 0 0
195 1 -9.1837125 -3.063451562017888 -5.104957562676047 0 0 0
196 1 -11.22020186382134 -1.0220182531219293 -5.106200935059352 0 0 0
200 1 -7.14722313617866 -1.0220182531219286 -5.106200935059351 0 0 0
314 1 -9.1837125 -5.104957562676047 -3.063451562017888 0 0 0
316 1 -11.22020186382134 -5.106200935059352 -1.022018253121929 0 0 0
320 1 -7.147223136178659 -5.106200935059352 -1.0220182531219288 0 0 0
337 1 -11.220087845100391 -3.0642458652608333 -3.0642458652608333 0 0 0
338 1 -9.183712499999999 -1.0212259653780977 -3.062789858193388 0 0 0
339 1 -9.1837125 -3.0627898581933883 -1.0212259653780977 0 0 0
340 1 -11.221889537165822 -1.0213381312992718 -1.0213381312992713 0 0 0
341 1 -7.147337154899607 -3.0642458652608324 -3.0642458652608324 0 0 0
344 1 -7.145535462834176 -1.0213381312992722 -1.0213381312992724 0 0 0
180 1 -3.0679547294733136 -5.108779729473314 -5.108779729473314 0 0 0
199 1 -5.109052398761965 -3.065794706561829 -5.108061649413864 0 0 0
203 1 -1.0302390139291615 -3.0710640139291616 -5.115269119307304 0 0 0
204 1 -3.0720888248043967 -1.0269864401628002 -5.112913824804396 0 0 0
318 1 -5.109052398761965 -5.108061649413864 -3.065794706561829 0 0 0
322 1 -1.0302390139291615 -5.115269119307304 -3.0710640139291616 0 0 0
324 1 -3.0720888248043967 -5.112913824804396 -1.0269864401628 0 0 0
342 1 -5.112744264946395 -1.0241521514103742 -3.0684352600593967 0 0 0
343 1 -5.112744264946395 -3.0684352600593967 -1.0241521514103744 0 0 0
345 1 -3.074444119307304 -3.0710640139291616 -3.071064013929161 0 0 0
346 1 -1.0356029902351886 -1.040427607486056 -3.0764279902351896 0 0 0
347 1 -1.035602990235188 -3.0764279902351896 -1.0404276074860555 0 0 0
348 1 -3.084416591411347 -1.031843814174862 -1.0318438141748623 0 0 0
184 1 1.0138385598372002 -5.112913824804396 -5.112913824804397 0 0 0
188 1 5.108636440162799 -5.112913824804396 -5.112913824804396 0 0 0
207 1 3.0612375000000003 -3.0856116474554804 -5.1267532750231215 0 0 0
208 1 1.0089811858251378 -1.0318438141748623 -5.1252415914113465 0 0 0
212 1 5.113493814174862 -1.031843814174862 -5.125241591411346 0 0 0
326 1 3.0612375000000003 -5.1267532750231215 -3.08561164745548 0 0 0
328 1 1.0089811858251383 -5.125241591411346 -1.0318438141748616 0 0 0
332 1 5.113493814174862 -5.1252415914113465 -1.0318438141748618 0 0 0
349 1 1.0003973925139447 -3.076427990235189 -3.0764279902351888 0 0 0
350 1 3.0612375 -1.0949863429361741 -3.1278363413816783 0 0 0
351 1 3.0612375 -3.12783634138168 -1.094986342936176 0 0 0
352 1 1.0273054210187336 -1.0135195789812654 -1.0135195789812654 0 0 0
353 1 5.122077607486054 -3.076427990235189 -3.076427990235189 0 0 0
356 1 5.095169578981264 -1.0135195789812643 -1.013519578981264 0 0 0
192 1 9.190429729473314 -5.108779729473314 -5.108779729473314 0 0 0
211 1 7.152714013929161 -3.071064013929161 -5.115269119307304 0 0 0
215 1 11.231527398761964 -3.06579470656183 -5.108061649413865 0 0 0
216 1 9.194563824804396 -1.0269864401628 -5.112913824804396 0 0 0
330 1 7.152714013929161 -5.115269119307305 -3.071064013929161 0 0 0
334 1 11.231527398761964 -5.108061649413865 -3.06579470656183 0 0 0
336 1 9.194563824804396 -5.112913824804396 -1.0269864401628 0 0 0
354 1 7.158077990235189 -1.0404276074860546 -3.076427990235189 0 0 0
355 1 7.158077990235189 -3.076427990235189 -1.0404276074860546 0 0 0
357 1 9.196919119307303 -3.071064013929161 -3.071064013929161 0 0 0
358 1 11.235219264946394 -1.0241521514103742 -3.068435260059397 0 0 0
359 1 11.235219264946394 -3.068435260059397 -1.024152151410374 0 0 0
360 1 9.206891591411345 -1.031843814174862 -1.031843814174862 0 0 0
219 1 -9.1837125 1.0204124999999995 -5.1045605556693205 0 0 0
220 1 -11.22020186382134 3.0628432531219287 -5.106200935059351 0 0 0
224 1 -7.14722313617866 3.062843253121929 -5.106200935059351 0 0 0
243 1 -9.183712499999999 5.104276562017888 -5.104957562676047 0 0 0
361 1 -11.221358174936029 1.0204124999999997 -3.0634091802123846 0 0 0
362 1 -9.183712499999999 3.062050965378098 -3.062789858193388 0 0 0
363 1 -9.1837125 1.0204124999999997 -1.0209972580805293 0 0 0
364 1 -11.221889537165824 3.0621631312992714 -1.021338131299272 0 0 0
365 1 -7.146066825063971 1.0204124999999995 -3.063409180212385 0 0 0
368 1 -7.145535462834176 3.0621631312992728 -1.0213381312992724 0 0 0
385 1 -11.220087845100393 5.105070865260832 -3.0642458652608333 0 0 0
387 1 -9.183712499999999 5.103614858193388 -1.021225965378098 0 0 0
389 1 -7.147337154899608 5.105070865260832 -3.064245865260833 0 0 0
223 1 -5.112128570670775 1.0204124999999995 -5.1118406536093675 0 0 0
227 1 -1.04478664745548 1.0204125000000002 -5.1267532750231215 0 0 0
228 1 -3.0720888248043963 3.0678114401628 -5.112913824804396 0 0 0
247 1 -5.109052398761965 5.106619706561829 -5.108061649413864 0 0 0
251 1 -1.0302390139291613 5.1118890139291615 -5.115269119307304 0 0 0
366 1 -5.112744264946395 3.064977151410374 -3.0684352600593967 0 0 0
367 1 -5.106939503228058 1.0204125 -1.0215259183896217 0 0 0
369 1 -3.085928275023124 1.0204125 -3.0856116474554818 0 0 0
370 1 -1.0356029902351886 3.081252607486056 -3.076427990235189 0 0 0
371 1 -1.0870113413816749 1.0204125 -1.0949863429361668 0 0 0
372 1 -3.0844165914113466 3.0726688141748624 -1.0318438141748623 0 0 0
391 1 -5.112744264946395 5.109260260059396 -1.0241521514103742 0 0 0
393 1 -3.074444119307304 5.111889013929161 -3.0710640139291607 0 0 0
395 1 -1.035602990235189 5.117252990235189 -1.0404276074860568 0 0 0
231 1 3.0612375 1.0204125000000002 -5.095255920408886 0 0 0
232 1 1.0089811858251383 3.072668814174862 -5.125241591411346 0 0 0
236 1 5.113493814174862 3.0726688141748615 -5.125241591411346 0 0 0
255 1 3.0612375 5.1264366474554794 -5.1267532750231215 0 0 0
373 1 0.945838657063826 1.0204125 -3.1278363413816797 0 0 0
374 1 3.0612375 3.135811342936174 -3.127836341381679 0 0 0
375 1 3.061237500000004 1.0204124999999975 -1.4483053628183715 0 0 0
376 1 1.0273054210187327 3.0543445789812664 -1.013519578981266 0 0 0
377 1 5.176636342936174 1.0204125 -3.1278363413816783 0 0 0
380 1 5.095169578981265 3.054344578981266 -1.0135195789812652 0 0 0
397 1 1.0003973925139438 5.117252990235189 -3.076427990235189 0 0 0
399 1 3.0612375 5.168661341381675 -1.0949863429361681 0 0 0
401 1 5.122077607486055 5.117252990235189 -3.076427990235189 0 0 0
235 1 7.16726164745548 1.0204124999999993 -5.126753275023122 0 0 0
239 1 11.234603570670775 1.0204124999999997 -5.111840653609368 0 0 0
240 1 9.194563824804396 3.0678114401628 -5.112913824804396 0 0 0
259 1 7.1527140139291605 5.111889013929161 -5.115269119307304 0 0 0
263 1 11.231527398761965 5.106619706561829 -5.108061649413864 0 0 0
378 1 7.1580779902351885 3.081252607486055 -3.076427990235189 0 0 0
379 1 7.20948634138168 1.0204124999999995 -1.0949863429361777 0 0 0
381 1 9.208403275023121 1.0204124999999993 -3.08561164745548 0 0 0
382 1 11.235219264946394 3.0649771514103743 -3.068435260059397 0 0 0
383 1 11.229414503228059 1.0204124999999997 -1.0215259183896206 0 0 0
384 1 9.206891591411345 3.072668814174862 -1.031843814174861 0 0 0
403 1 7.158077990235189 5.117252990235189 -1.0404276074860552 0 0 0
405 1 9.196919119307303 5.111889013929161 -3.071064013929161 0 0 0
407 1 11.235219264946394 5.109260260059397 -1.0241521514103742 0 0 0
244 1 -11.221609231493979 7.146143293689447 -5.105318293689447 0 0 0
248 1 -7.145815768506022 7.146143293689447 -5.1053182936894475 0 0 0
267 1 -9.1837125 9.186158744210468 -5.104511118382022 0 0 0
268 1 -11.222912624995518 11.22616237500448 -5.104420229922771 0 0 0
272 1 -7.144512375004481 11.226162375004481 -5.104420229922771 0 0 0
386 1 -9.1837125 7.145782562676048 -3.063451562017887 0 0 0
388 1 -11.22020186382134 7.147025935059352 -1.0220182531219286 0 0 0
392 1 -7.147223136178661 7.147025935059352 -1.0220182531219288 0 0 0
409 1 -11.22180911330084 9.187061421020255 -3.063707714372064 0 0 0
410 1 -9.1837125 11.226219157119914 -3.0632193340850504 0 0 0
411 1 -9.1837125 9.18678259754712 -1.021637662576305 0 0 0
412 1 -11.222279881649557 11.226795118350442 -1.0217420961556496 0 0 0
413 1 -7.14561588669916 9.187061421020255 -3.0637077143720646 0 0 0
416 1 -7.145145118350442 11.226795118350443 -1.0217420961556494 0 0 0
252 1 -3.067954729473314 7.149604729473313 -5.108779729473314 0 0 0
271 1 -5.1058986198907945 9.187548619890793 -5.105640604935659 0 0 0
275 1 -1.024969706561829 9.190702398761964 -5.108061649413865 0 0 0
276 1 -3.0644932936894476 11.227465768506022 -5.105318293689447 0 0 0
390 1 -5.109052398761965 7.148886649413864 -3.065794706561829 0 0 0
394 1 -1.030239013929161 7.156094119307304 -3.0710640139291607 0 0 0
396 1 -3.072088824804396 7.153738824804396 -1.0269864401627997 0 0 0
414 1 -5.105411421020256 11.22726588669916 -3.0637077143720637 0 0 0
415 1 -5.107776545449318 9.189426545449317 -1.0228359226810908 0 0 0
417 1 -3.0672366494138648 9.190702398761966 -3.065794706561829 0 0 0
418 1 -1.0234208652608334 11.228987154899606 -3.064245865260833 0 0 0
419 1 -1.0276102600593973 9.194394264946395 -1.024152151410374 0 0 0
420 1 -3.0653759350593517 11.22887313617866 -1.0220182531219295 0 0 0
256 1 1.0138385598372002 7.153738824804396 -5.112913824804396 0 0 0
260 1 5.1086364401628 7.153738824804396 -5.112913824804396 0 0 0
279 1 3.0612375 9.193778570670775 -5.111840653609368 0 0 0
280 1 1.0188067468780713 11.228873136178658 -5.106200935059351 0 0 0
284 1 5.103668253121929 11.22887313617866 -5.106200935059352 0 0 0
398 1 3.0612375 7.167578275023122 -3.085611647455481 0 0 0
400 1 1.0089811858251376 7.166066591411346 -1.031843814174862 0 0 0
404 1 5.113493814174862 7.166066591411346 -1.0318438141748618 0 0 0
421 1 1.016672848589626 9.194394264946395 -3.068435260059397 0 0 0
422 1 3.0612374999999994 11.227716825063968 -3.0634091802123846 0 0 0
423 1 3.0612375 9.188589503228057 -1.0215259183896213 0 0 0
424 1 1.019486868700728 11.227185462834175 -1.0213381312992718 0 0 0
425 1 5.105802151410374 9.194394264946395 -3.0684352600593967 0 0 0
428 1 5.102988131299272 11.227185462834175 -1.0213381312992722 0 0 0
264 1 9.190429729473314 7.149604729473313 -5.108779729473313 0 0 0
283 1 7.147444706561829 9.190702398761966 -5.108061649413865 0 0 0
287 1 11.228373619890794 9.187548619890793 -5.105640604935659 0 0 0
288 1 9.186968293689446 11.227465768506022 -5.1053182936894475 0 0 0
402 1 7.152714013929161 7.156094119307304 -3.071064013929161 0 0 0
406 1 11.231527398761964 7.148886649413864 -3.0657947065618294 0 0 0
408 1 9.194563824804396 7.153738824804396 -1.0269864401628 0 0 0
426 1 7.145895865260833 11.228987154899606 -3.064245865260833 0 0 0
427 1 7.150085260059397 9.194394264946395 -1.024152151410374 0 0 0
429 1 9.189711649413864 9.190702398761964 -3.065794706561829 0 0 0
430 1 11.227886421020255 11.22726588669916 -3.0637077143720637 0 0 0
431 1 11.230251545449317 9.189426545449317 -1.022835922681091 0 0 0
432 1 9.18785093505935 11.22887313617866 -1.0220182531219293 0 0 0
433 1 -11.22240843055259 -11.224537499999999 1.0204124999999997 0 0 0
434 1 -9.1837125 -9.185841569447408 1.0204125 0 0 0
435 1 -9.1837125 -11.2245375 3.0624267761585777 0 0 0
436 1 -11.222279881649557 -9.185970118350442 3.0625670961556497 0 0 0
437 1 -7.145016569447409 -11.224537499999999 1.0204125000000002 0 0 0
440 1 -7.145145118350442 -9.185970118350442 3.0625670961556493 0 0 0
457 1 -11.220865015176853 -7.147229097325571 1.0204125 0 0 0
459 1 -9.1837125 -7.145957597547121 3.0624626625763045 0 0 0
461 1 -7.146559984823145 -7.147229097325571 1.0204125 0 0 0
577 1 -11.222855842880085 -11.2245375 5.104044334085049 0 0 0
578 1 -9.183712499999999 -9.185394157119914 5.10404433408505 0 0 0
581 1 -7.144569157119913 -11.224537499999999 5.104044334085049 0 0 0
601 1 -11.22180911330084 -7.146236421020256 5.104532714372064 0 0 0
605 1 -7.145615886699159 -7.146236421020256 5.1045327143720645 0 0 0
438 1 -5.106404097325571 -9.187384984823145 1.0204125 0 0 0
439 1 -5.105132597547122 -11.2245375 3.0624626625763045 0 0 0
441 1 -3.0637355556693207 -11.2245375 1.0204124999999995 0 0 0
442 1 -1.0225841802123843 -9.186891825063972 1.0204124999999997 0 0 0
443 1 -1.0219648581933876 -11.2245375 3.0620509653780976 0 0 0
444 1 -3.0653759350593512 -9.18804813617866 3.0628432531219287 0 0 0
463 1 -5.107776545449316 -7.148601545449317 3.0636609226810902 0 0 0
465 1 -3.071015653609369 -7.152953570670776 1.0204124999999997 0 0 0
467 1 -1.027610260059397 -7.153569264946395 3.0649771514103747 0 0 0
582 1 -5.105411421020255 -9.18644088669916 5.104532714372064 0 0 0
585 1 -3.064132562676047 -11.2245375 5.104276562017888 0 0 0
586 1 -1.0234208652608325 -9.188162154899606 5.105070865260832 0 0 0
609 1 -3.0672366494138643 -7.149877398761965 5.106619706561829 0 0 0
445 1 1.0198277419194706 -11.2245375 1.0204125 0 0 0
446 1 3.0612375 -9.185692863987082 1.0204124999999997 0 0 0
447 1 3.0612375 -11.2245375 3.061822258080529 0 0 0
448 1 1.019486868700728 -9.186360462834177 3.062163131299272 0 0 0
449 1 5.102647258080529 -11.2245375 1.0204125 0 0 0
452 1 5.102988131299272 -9.186360462834177 3.062163131299272 0 0 0
469 1 1.0192990816103793 -7.147764503228058 1.0204125 0 0 0
471 1 3.0612375 -7.147764503228058 3.0623509183896203 0 0 0
473 1 5.103175918389621 -7.147764503228058 1.0204124999999993 0 0 0
589 1 1.0195990346219022 -11.2245375 5.103614858193387 0 0 0
590 1 3.0612375000000003 -9.186891825063972 5.1042341802123845 0 0 0
593 1 5.1028759653780975 -11.224537499999999 5.103614858193387 0 0 0
613 1 1.0166728485896253 -7.153569264946396 5.109260260059397 0 0 0
617 1 5.105802151410375 -7.153569264946396 5.109260260059397 0 0 0
450 1 7.145059180212384 -9.186891825063972 1.0204124999999995 0 0 0
451 1 7.144439858193387 -11.2245375 3.0620509653780976 0 0 0
453 1 9.186210555669321 -11.2245375 1.0204124999999995 0 0 0
454 1 11.22887909732557 -9.187384984823145 1.0204125 0 0 0
455 1 11.22760759754712 -11.2245375 3.0624626625763045 0 0 0
456 1 9.187850935059352 -9.18804813617866 3.0628432531219287 0 0 0
475 1 7.150085260059397 -7.153569264946396 3.064977151410374 0 0 0
477 1 9.193490653609368 -7.152953570670776 1.0204124999999997 0 0 0
479 1 11.230251545449317 -7.148601545449317 3.0636609226810907 0 0 0
594 1 7.145895865260832 -9.188162154899608 5.105070865260833 0 0 0
597 1 9.186607562676047 -11.2245375 5.104276562017888 0 0 0
598 1 11.227886421020255 -9.18644088669916 5.104532714372064 0 0 0
621 1 9.189711649413864 -7.149877398761965 5.106619706561829 0 0 0
458 1 -9.183712499999999 -5.104560555669321 1.0204124999999997 0 0 0
460 1 -11.22020186382134 -5.106200935059352 3.0628432531219287 0 0 0
464 1 -7.147223136178659 -5.106200935059351 3.0628432531219283 0 0 0
481 1 -11.221358174936027 -3.0634091802123846 1.0204125 0 0 0
482 1 -9.183712499999999 -1.0209972580805295 1.0204124999999995 0 0 0
483 1 -9.183712499999999 -3.062789858193388 3.0620509653780976 0 0 0
484 1 -11.221889537165822 -1.0213381312992718 3.0621631312992714 0 0 0
485 1 -7.14606682506397 -3.0634091802123846 1.0204125 0 0 0
488 1 -7.145535462834175 -1.0213381312992722 3.0621631312992723 0 0 0
602 1 -9.183712499999999 -5.104957562676047 5.104276562017888 0 0 0
625 1 -11.220087845100391 -3.064245865260833 5.105070865260832 0 0 0
626 1 -9.183712499999999 -1.021225965378098 5.103614858193388 0 0 0
629 1 -7.147337154899606 -3.0642458652608324 5.105070865260832 0 0 0
462 1 -5.112128570670775 -5.111840653609368 1.0204124999999995 0 0 0
466 1 -1.0447866474554799 -5.1267532750231215 1.0204125 0 0 0
468 1 -3.0720888248043963 -5.112913824804396 3.0678114401627994 0 0 0
486 1 -5.106939503228058 -1.021525918389621 1.0204124999999995 0 0 0
487 1 -5.112744264946395 -3.068435260059397 3.064977151410374 0 0 0
489 1 -3.0859282750231234 -3.0856116474554818 1.0204124999999997 0 0 0
490 1 -1.0870113413816744 -1.0949863429361661 1.0204125 0 0 0
491 1 -1.0356029902351884 -3.0764279902351896 3.0812526074860553 0 0 0
492 1 -3.0844165914113466 -1.0318438141748623 3.072668814174862 0 0 0
606 1 -5.109052398761965 -5.108061649413864 5.106619706561829 0 0 0
610 1 -1.0302390139291606 -5.115269119307304 5.111889013929161 0 0 0
630 1 -5.112744264946395 -1.0241521514103744 5.109260260059396 0 0 0
633 1 -3.074444119307304 -3.071064013929161 5.1118890139291615 0 0 0
634 1 -1.0356029902351886 -1.0404276074860563 5.117252990235189 0 0 0
470 1 3.0612375000000003 -5.095255920408887 1.0204124999999995 0 0 0
472 1 1.0089811858251378 -5.125241591411346 3.072668814174862 0 0 0
476 1 5.113493814174862 -5.125241591411346 3.072668814174862 0 0 0
493 1 0.9458386570638242 -3.1278363413816805 1.0204124999999995 0 0 0
494 1 3.061237500000004 -1.4483053628183655 1.0204124999999984 0 0 0
495 1 3.0612375000000003 -3.12783634138168 3.135811342936176 0 0 0
496 1 1.0273054210187333 -1.0135195789812654 3.0543445789812664 0 0 0
497 1 5.176636342936176 -3.1278363413816797 1.0204125 0 0 0
500 1 5.095169578981264 -1.0135195789812645 3.054344578981265 0 0 0
614 1 3.0612375000000003 -5.1267532750231215 5.1264366474554794 0 0 0
637 1 1.0003973925139449 -3.076427990235189 5.117252990235188 0 0 0
638 1 3.0612375 -1.09498634293617 5.168661341381676 0 0 0
641 1 5.122077607486054 -3.0764279902351896 5.117252990235189 0 0 0
474 1 7.16726164745548 -5.1267532750231215 1.0204124999999995 0 0 0
478 1 11.234603570670775 -5.111840653609368 1.0204124999999997 0 0 0
480 1 9.194563824804396 -5.112913824804396 3.0678114401628 0 0 0
498 1 7.20948634138168 -1.0949863429361775 1.0204125 0 0 0
499 1 7.158077990235189 -3.0764279902351888 3.081252607486055 0 0 0
501 1 9.208403275023121 -3.0856116474554796 1.0204125 0 0 0
502 1 11.229414503228059 -1.021525918389621 1.0204125 0 0 0
503 1 11.235219264946396 -3.068435260059397 3.064977151410374 0 0 0
504 1 9.206891591411345 -1.0318438141748618 3.0726688141748615 0 0 0
618 1 7.152714013929161 -5.115269119307304 5.111889013929161 0 0 0
622 1 11.231527398761964 -5.108061649413864 5.106619706561829 0 0 0
642 1 7.158077990235189 -1.040427607486055 5.117252990235188 0 0 0
645 1 9.196919119307305 -3.071064013929161 5.111889013929161 0 0 0
646 1 11.235219264946396 -1.0241521514103746 5.109260260059396 0 0 0
505 1 -11.222557136012917 1.0204125 1.0204125000000002 0 0 0
506 1 -9.183712499999999 3.061822258080529 1.0204125000000002 0 0 0
507 1 -9.183712499999999 1.0204125000000004 3.0618222580805288 0 0 0
508 1 -11.221889537165822 3.0621631312992723 3.062163131299272 0 0 0
509 1 -7.144867863987081 1.0204124999999997 1.0204125 0 0 0
512 1 -7.145535462834175 3.062163131299272 3.0621631312992714 0 0 0
529 1 -11.221358174936029 5.1042341802123845 1.0204125000000004 0 0 0
531 1 -9.1837125 5.103614858193387 3.0620509653780976 0 0 0
533 1 -7.14606682506397 5.1042341802123845 1.0204124999999995 0 0 0
649 1 -11.221358174936027 1.0204124999999997 5.104234180212384 0 0 0
650 1 -9.183712499999999 3.062050965378098 5.103614858193387 0 0 0
653 1 -7.14606682506397 1.0204124999999997 5.1042341802123845 0 0 0
673 1 -11.220087845100391 5.105070865260832 5.105070865260832 0 0 0
677 1 -7.147337154899606 5.105070865260832 5.105070865260833 0 0 0
510 1 -5.106939503228058 3.062350918389621 1.0204125 0 0 0
511 1 -5.106939503228058 1.0204125 3.062350918389621 0 0 0
513 1 -3.0544309204088838 1.0204125 1.0204125 0 0 0
514 1 -1.087011341381675 3.135811342936167 1.0204125000000002 0 0 0
515 1 -1.0870113413816749 1.0204125 3.1358113429361665 0 0 0
516 1 -3.084416591411346 3.0726688141748624 3.072668814174862 0 0 0
535 1 -5.112744264946395 5.109260260059397 3.064977151410374 0 0 0
537 1 -3.0859282750231234 5.126436647455481 1.0204125 0 0 0
539 1 -1.035602990235189 5.117252990235189 3.0812526074860567 0 0 0
654 1 -5.112744264946395 3.064977151410374 5.109260260059397 0 0 0
657 1 -3.0859282750231234 1.0204124999999997 5.126436647455481 0 0 0
658 1 -1.0356029902351889 3.0812526074860567 5.117252990235189 0 0 0
681 1 -3.0744441193073038 5.1118890139291615 5.111889013929161 0 0 0
517 1 0.5925196371815824 1.020412499999998 1.0204124999999984 0 0 0
518 1 3.061237500000004 3.4891303628184063 1.0204124999999986 0 0 0
519 1 3.0612375000000034 1.0204124999999975 3.4891303628184 0 0 0
520 1 1.0273054210187325 3.0543445789812673 3.0543445789812673 0 0 0
521 1 5.529955362818354 1.020412499999997 1.0204124999999982 0 0 0
524 1 5.095169578981265 3.0543445789812664 3.0543445789812664 0 0 0
541 1 0.9458386570638312 5.168661341381676 1.0204125 0 0 0
543 1 3.0612375000000003 5.168661341381675 3.1358113429361683 0 0 0
545 1 5.176636342936168 5.168661341381674 1.0204124999999997 0 0 0
661 1 0.9458386570638304 1.0204125 5.168661341381677 0 0 0
662 1 3.0612375 3.13581134293617 5.168661341381677 0 0 0
665 1 5.17663634293617 1.0204125 5.168661341381676 0 0 0
685 1 1.0003973925139438 5.117252990235188 5.117252990235189 0 0 0
689 1 5.122077607486056 5.117252990235189 5.117252990235189 0 0 0
865 1 3.061237500000039 1.0204124999999726 1.0204124999999837 0 0 0
522 1 7.209486341381681 3.135811342936178 1.0204125000000002 0 0 0
523 1 7.209486341381681 1.0204124999999997 3.135811342936178 0 0 0
525 1 9.176905920408887 1.0204125 1.0204125 0 0 0
526 1 11.229414503228059 3.0623509183896203 1.0204124999999997 0 0 0
527 1 11.229414503228059 1.0204124999999997 3.0623509183896203 0 0 0
528 1 9.206891591411345 3.0726688141748615 3.072668814174862 0 0 0
547 1 7.158077990235189 5.117252990235188 3.0812526074860553 0 0 0
549 1 9.208403275023121 5.126436647455479 1.0204124999999995 0 0 0
551 1 11.235219264946396 5.109260260059397 3.064977151410375 0 0 0
666 1 7.158077990235189 3.0812526074860545 5.117252990235188 0 0 0
669 1 9.208403275023121 1.0204125000000002 5.1264366474554794 0 0 0
670 1 11.235219264946394 3.0649771514103747 5.109260260059397 0 0 0
693 1 9.196919119307305 5.111889013929161 5.1118890139291615 0 0 0
530 1 -9.1837125 7.145385555669321 1.0204124999999995 0 0 0
532 1 -11.22020186382134 7.147025935059351 3.0628432531219287 0 0 0
536 1 -7.14722313617866 7.147025935059352 3.0628432531219283 0 0 0
553 1 -11.220865015176855 9.18805409732557 1.0204124999999995 0 0 0
554 1 -9.1837125 11.22666656944741 1.0204125 0 0 0
555 1 -9.183712499999999 9.18678259754712 3.0624626625763045 0 0 0
556 1 -11.222279881649557 11.226795118350443 3.0625670961556497 0 0 0
557 1 -7.146559984823145 9.18805409732557 1.0204125 0 0 0
560 1 -7.145145118350442 11.226795118350443 3.062567096155649 0 0 0
674 1 -9.183712499999999 7.145782562676048 5.104276562017888 0 0 0
697 1 -11.22180911330084 9.187061421020255 5.104532714372064 0 0 0
698 1 -9.1837125 11.226219157119914 5.104044334085049 0 0 0
701 1 -7.14561588669916 9.187061421020255 5.104532714372064 0 0 0
534 1 -5.112128570670775 7.152665653609368 1.0204125000000002 0 0 0
538 1 -1.0447866474554812 7.167578275023124 1.0204124999999995 0 0 0
540 1 -3.0720888248043967 7.153738824804396 3.0678114401627994 0 0 0
558 1 -5.106404097325572 11.228209984823145 1.0204125 0 0 0
559 1 -5.107776545449317 9.189426545449317 3.06366092268109 0 0 0
561 1 -3.0710156536093685 9.193778570670775 1.0204125 0 0 0
562 1 -1.0225841802123845 11.22771682506397 1.0204125 0 0 0
563 1 -1.027610260059397 9.194394264946395 3.0649771514103743 0 0 0
564 1 -3.0653759350593517 11.22887313617866 3.0628432531219287 0 0 0
678 1 -5.109052398761965 7.148886649413864 5.106619706561829 0 0 0
682 1 -1.0302390139291613 7.156094119307304 5.1118890139291615 0 0 0
702 1 -5.105411421020255 11.22726588669916 5.104532714372064 0 0 0
705 1 -3.0672366494138634 9.190702398761964 5.106619706561829 0 0 0
706 1 -1.0234208652608325 11.228987154899606 5.105070865260833 0 0 0
542 1 3.0612375 7.136080920408885 1.0204125000000004 0 0 0
544 1 1.0089811858251378 7.166066591411346 3.072668814174862 0 0 0
548 1 5.113493814174862 7.166066591411346 3.0726688141748624 0 0 0
565 1 1.0192990816103786 9.188589503228057 1.0204125 0 0 0
566 1 3.0612375 11.22651786398708 1.0204125 0 0 0
567 1 3.0612375 9.188589503228059 3.062350918389621 0 0 0
568 1 1.0194868687007284 11.227185462834175 3.062163131299272 0 0 0
569 1 5.103175918389621 9.188589503228057 1.0204125 0 0 0
572 1 5.102988131299271 11.227185462834175 3.062163131299272 0 0 0
686 1 3.0612375000000003 7.167578275023122 5.126436647455481 0 0 0
709 1 1.0166728485896255 9.194394264946395 5.109260260059397 0 0 0
710 1 3.0612375 11.22771682506397 5.1042341802123845 0 0 0
713 1 5.105802151410374 9.194394264946395 5.109260260059397 0 0 0
546 1 7.167261647455481 7.167578275023122 1.0204125 0 0 0
550 1 11.234603570670776 7.152665653609368 1.0204125 0 0 0
552 1 9.194563824804396 7.153738824804396 3.0678114401628003 0 0 0
570 1 7.145059180212384 11.22771682506397 1.0204125 0 0 0
571 1 7.150085260059398 9.194394264946395 3.0649771514103743 0 0 0
573 1 9.193490653609368 9.193778570670775 1.0204124999999997 0 0 0
574 1 11.22887909732557 11.228209984823145 1.0204125000000002 0 0 0
575 1 11.230251545449317 9.189426545449317 3.063660922681091 0 0 0
576 1 9.187850935059352 11.22887313617866 3.062843253121929 0 0 0
690 1 7.152714013929161 7.156094119307305 5.111889013929161 0 0 0
694 1 11.231527398761965 7.148886649413864 5.106619706561829 0 0 0
714 1 7.145895865260833 11.228987154899606 5.105070865260832 0 0 0
717 1 9.189711649413864 9.190702398761966 5.106619706561829 0 0 0
718 1 11.227886421020255 11.22726588669916 5.104532714372064 0 0 0
579 1 -9.183712499999999 -11.224537499999999 7.145013377046435 0 0 0
580 1 -11.222912624995518 -9.185337375004481 7.145245229922771 0 0 0
584 1 -7.1445123750044806 -9.185337375004481 7.14524522992277 0 0 0
603 1 -9.183712499999999 -7.145333744210467 7.145336118382022 0 0 0
721 1 -11.223315806872764 -11.224537499999999 9.185593281517038 0 0 0
722 1 -9.1837125 -9.184934193127235 9.18559328151704 0 0 0
723 1 -9.1837125 -11.224537499999999 11.225561189679858 0 0 0
724 1 -11.223393075066491 -9.184856924933507 11.225681924933506 0 0 0
725 1 -7.144109193127234 -11.224537499999999 9.185593281517038 0 0 0
728 1 -7.144031924933508 -9.184856924933506 11.225681924933507 0 0 0
745 1 -11.222862572078105 -7.145224588638246 9.186049588638245 0 0 0
747 1 -9.1837125 -7.144768281517039 11.225759193127235 0 0 0
749 1 -7.144562427921894 -7.1452245886382455 9.186049588638246 0 0 0
583 1 -5.104508744210468 -11.2245375 7.145336118382022 0 0 0
587 1 -1.022626562017888 -11.2245375 7.145782562676047 0 0 0
588 1 -3.0644932936894476 -9.186640768506022 7.1461432936894465 0 0 0
607 1 -5.105898619890794 -7.1467236198907935 7.146465604935658 0 0 0
611 1 -1.0249697065618288 -7.149877398761965 7.148886649413864 0 0 0
726 1 -5.1043995886382465 -9.185387427921894 9.186049588638246 0 0 0
727 1 -5.10394328151704 -11.2245375 11.225759193127235 0 0 0
729 1 -3.0636861183820225 -11.2245375 9.186158744210468 0 0 0
730 1 -1.0228827143720638 -9.18644088669916 9.187061421020257 0 0 0
731 1 -1.0223943340850505 -11.224537499999999 11.226219157119914 0 0 0
732 1 -3.0635952299227696 -9.185337375004481 11.226162375004481 0 0 0
751 1 -5.1043995886382465 -7.1452245886382455 11.226212427921894 0 0 0
753 1 -3.0648156049356587 -7.146723619890794 9.187548619890794 0 0 0
755 1 -1.022882714372064 -7.146236421020256 11.22726588669916 0 0 0
591 1 3.0612375 -11.2245375 7.14538555566932 0 0 0
592 1 1.0188067468780713 -9.18804813617866 7.147025935059351 0 0 0
596 1 5.103668253121929 -9.18804813617866 7.147025935059351 0 0 0
615 1 3.0612375 -7.152953570670776 7.152665653609367 0 0 0
733 1 1.019187337423695 -11.2245375 9.186782597547122 0 0 0
734 1 3.0612375 -9.187384984823145 9.18805409732557 0 0 0
735 1 3.0612375 -11.2245375 11.226666569447408 0 0 0
736 1 1.01908290384435 -9.185970118350442 11.226795118350442 0 0 0
737 1 5.103287662576305 -11.224537499999999 9.186782597547122 0 0 0
740 1 5.103392096155649 -9.185970118350443 11.226795118350442 0 0 0
757 1 1.017989077318909 -7.148601545449318 9.189426545449317 0 0 0
759 1 3.0612375 -7.147229097325572 11.228209984823144 0 0 0
761 1 5.104485922681091 -7.148601545449317 9.189426545449317 0 0 0
595 1 7.145101562017888 -11.2245375 7.145782562676046 0 0 0
599 1 11.226983744210468 -11.2245375 7.145336118382023 0 0 0
600 1 9.186968293689448 -9.186640768506022 7.146143293689447 0 0 0
619 1 7.147444706561828 -7.149877398761965 7.148886649413863 0 0 0
623 1 11.228373619890794 -7.146723619890794 7.146465604935658 0 0 0
738 1 7.1453577143720635 -9.18644088669916 9.187061421020257 0 0 0
739 1 7.144869334085049 -11.224537499999999 11.226219157119914 0 0 0
741 1 9.186161118382023 -11.224537499999999 9.186158744210468 0 0 0
742 1 11.226874588638246 -9.185387427921894 9.186049588638245 0 0 0
743 1 11.22641828151704 -11.224537499999999 11.225759193127233 0 0 0
744 1 9.18607022992277 -9.185337375004481 11.22616237500448 0 0 0
763 1 7.1453577143720635 -7.146236421020256 11.227265886699158 0 0 0
765 1 9.187290604935658 -7.146723619890794 9.187548619890793 0 0 0
767 1 11.226874588638244 -7.1452245886382455 11.226212427921894 0 0 0
604 1 -11.221609231493977 -5.1053182936894475 7.146143293689447 0 0 0
608 1 -7.145815768506021 -5.105318293689447 7.1461432936894465 0 0 0
627 1 -9.183712499999999 -3.063451562017888 7.145782562676047 0 0 0
628 1 -11.22020186382134 -1.0220182531219288 7.14702593505935 0 0 0
632 1 -7.147223136178659 -1.0220182531219293 7.147025935059352 0 0 0
746 1 -9.183712499999999 -5.104511118382022 9.186158744210468 0 0 0
748 1 -11.222912624995518 -5.104420229922771 11.226162375004481 0 0 0
752 1 -7.1445123750044806 -5.104420229922771 11.226162375004481 0 0 0
769 1 -11.22180911330084 -3.0637077143720646 9.187061421020257 0 0 0
770 1 -9.183712499999999 -1.0216376625763048 9.18678259754712 0 0 0
771 1 -9.1837125 -3.0632193340850504 11.226219157119914 0 0 0
772 1 -11.222279881649555 -1.0217420961556491 11.226795118350442 0 0 0
773 1 -7.14561588669916 -3.0637077143720637 9.187061421020255 0 0 0
776 1 -7.145145118350442 -1.0217420961556496 11.226795118350442 0 0 0
612 1 -3.067954729473313 -5.108779729473314 7.149604729473313 0 0 0
631 1 -5.109052398761965 -3.0657947065618294 7.148886649413864 0 0 0
635 1 -1.030239013929161 -3.0710640139291607 7.156094119307304 0 0 0
636 1 -3.072088824804396 -1.0269864401627997 7.153738824804396 0 0 0
750 1 -5.105898619890794 -5.105640604935659 9.187548619890794 0 0 0
754 1 -1.0249697065618295 -5.108061649413864 9.190702398761966 0 0 0
756 1 -3.0644932936894476 -5.1053182936894475 11.227465768506022 0 0 0
774 1 -5.107776545449317 -1.0228359226810906 9.189426545449317 0 0 0
775 1 -5.105411421020255 -3.0637077143720637 11.227265886699161 0 0 0
777 1 -3.067236649413864 -3.0657947065618294 9.190702398761964 0 0 0
778 1 -1.0276102600593964 -1.024152151410374 9.194394264946395 0 0 0
779 1 -1.023420865260833 -3.064245865260833 11.228987154899606 0 0 0
780 1 -3.065375935059352 -1.0220182531219293 11.22887313617866 0 0 0
616 1 1.0138385598372004 -5.112913824804397 7.153738824804396 0 0 0
620 1 5.1086364401628 -5.112913824804396 7.153738824804396 0 0 0
639 1 3.0612375000000003 -3.0856116474554804 7.167578275023121 0 0 0
640 1 1.0089811858251378 -1.0318438141748618 7.166066591411346 0 0 0
644 1 5.113493814174862 -1.0318438141748618 7.166066591411346 0 0 0
758 1 3.0612375 -5.111840653609368 9.193778570670775 0 0 0
760 1 1.0188067468780713 -5.106200935059352 11.22887313617866 0 0 0
764 1 5.103668253121929 -5.106200935059351 11.228873136178658 0 0 0
781 1 1.016672848589626 -3.0684352600593963 9.194394264946395 0 0 0
782 1 3.0612375 -1.0215259183896206 9.188589503228057 0 0 0
783 1 3.0612375 -3.0634091802123846 11.22771682506397 0 0 0
784 1 1.0194868687007284 -1.0213381312992718 11.227185462834175 0 0 0
785 1 5.105802151410374 -3.0684352600593967 9.194394264946395 0 0 0
788 1 5.102988131299272 -1.021338131299272 11.227185462834175 0 0 0
624 1 9.190429729473314 -5.108779729473313 7.149604729473313 0 0 0
643 1 7.152714013929161 -3.071064013929161 7.156094119307303 0 0 0
647 1 11.231527398761965 -3.065794706561829 7.148886649413864 0 0 0
648 1 9.194563824804398 -1.0269864401627997 7.153738824804395 0 0 0
762 1 7.147444706561829 -5.108061649413865 9.190702398761964 0 0 0
766 1 11.228373619890794 -5.105640604935658 9.187548619890793 0 0 0
768 1 9.186968293689448 -5.1053182936894475 11.22746576850602 0 0 0
786 1 7.150085260059397 -1.024152151410374 9.194394264946395 0 0 0
787 1 7.145895865260832 -3.064245865260833 11.228987154899606 0 0 0
789 1 9.189711649413866 -3.065794706561829 9.190702398761964 0 0 0
790 1 11.230251545449317 -1.0228359226810908 9.189426545449317 0 0 0
791 1 11.227886421020255 -3.063707714372064 11.227265886699158 0 0 0
792 1 9.187850935059352 -1.0220182531219288 11.228873136178658 0 0 0
651 1 -9.183712499999999 1.0204124999999997 7.14538555566932 0 0 0
652 1 -11.220201863821337 3.0628432531219287 7.147025935059351 0 0 0
656 1 -7.147223136178659 3.0628432531219287 7.147025935059351 0 0 0
675 1 -9.183712499999999 5.104276562017888 7.145782562676047 0 0 0
793 1 -11.220865015176853 1.0204125000000002 9.18805409732557 0 0 0
794 1 -9.1837125 3.062462662576305 9.18678259754712 0 0 0
795 1 -9.183712499999999 1.0204125 11.226666569447408 0 0 0
796 1 -11.222279881649557 3.0625670961556493 11.226795118350442 0 0 0
797 1 -7.146559984823145 1.0204124999999995 9.18805409732557 0 0 0
800 1 -7.145145118350442 3.0625670961556497 11.226795118350443 0 0 0
817 1 -11.22180911330084 5.104532714372064 9.187061421020255 0 0 0
819 1 -9.183712499999999 5.10404433408505 11.226219157119916 0 0 0
821 1 -7.145615886699159 5.104532714372064 9.187061421020255 0 0 0
655 1 -5.112128570670775 1.0204125000000002 7.152665653609367 0 0 0
659 1 -1.044786647455481 1.0204124999999997 7.167578275023123 0 0 0
660 1 -3.0720888248043963 3.0678114401628 7.153738824804396 0 0 0
679 1 -5.109052398761965 5.106619706561828 7.148886649413864 0 0 0
683 1 -1.0302390139291608 5.111889013929161 7.156094119307304 0 0 0
798 1 -5.107776545449317 3.0636609226810907 9.189426545449317 0 0 0
799 1 -5.106404097325571 1.0204124999999993 11.228209984823145 0 0 0
801 1 -3.071015653609368 1.0204125 9.193778570670775 0 0 0
802 1 -1.0276102600593973 3.064977151410374 9.194394264946395 0 0 0
803 1 -1.0225841802123847 1.0204125000000004 11.227716825063972 0 0 0
804 1 -3.0653759350593512 3.0628432531219287 11.22887313617866 0 0 0
823 1 -5.105411421020255 5.104532714372064 11.22726588669916 0 0 0
825 1 -3.0672366494138643 5.106619706561829 9.190702398761964 0 0 0
827 1 -1.0234208652608332 5.105070865260832 11.228987154899608 0 0 0
663 1 3.0612375 1.0204125000000002 7.136080920408885 0 0 0
664 1 1.0089811858251378 3.0726688141748624 7.166066591411346 0 0 0
668 1 5.113493814174862 3.072668814174862 7.166066591411346 0 0 0
687 1 3.0612375 5.12643664745548 7.167578275023122 0 0 0
805 1 1.0192990816103789 1.0204124999999997 9.188589503228057 0 0 0
806 1 3.0612375000000003 3.062350918389621 9.188589503228057 0 0 0
807 1 3.0612374999999994 1.0204124999999995 11.22651786398708 0 0 0
808 1 1.0194868687007277 3.062163131299271 11.227185462834177 0 0 0
809 1 5.103175918389621 1.0204125000000002 9.188589503228057 0 0 0
812 1 5.102988131299272 3.062163131299272 11.227185462834175 0 0 0
829 1 1.0166728485896261 5.109260260059397 9.194394264946395 0 0 0
831 1 3.0612375000000003 5.1042341802123845 11.22771682506397 0 0 0
833 1 5.105802151410374 5.109260260059396 9.194394264946395 0 0 0
667 1 7.167261647455481 1.0204124999999997 7.167578275023121 0 0 0
671 1 11.234603570670775 1.0204125 7.152665653609368 0 0 0
672 1 9.194563824804396 3.0678114401628 7.153738824804395 0 0 0
691 1 7.152714013929161 5.1118890139291615 7.156094119307304 0 0 0
695 1 11.231527398761965 5.106619706561829 7.148886649413864 0 0 0
810 1 7.150085260059397 3.0649771514103743 9.194394264946395 0 0 0
811 1 7.145059180212385 1.0204125000000002 11.22771682506397 0 0 0
813 1 9.193490653609368 1.0204125 9.193778570670775 0 0 0
814 1 11.230251545449317 3.0636609226810902 9.189426545449317 0 0 0
815 1 11.22887909732557 1.0204125000000002 11.228209984823144 0 0 0
816 1 9.187850935059352 3.0628432531219287 11.228873136178658 0 0 0
835 1 7.145895865260833 5.105070865260832 11.228987154899606 0 0 0
837 1 9.189711649413864 5.106619706561828 9.190702398761964 0 0 0
839 1 11.227886421020255 5.104532714372064 11.22726588669916 0 0 0
676 1 -11.221609231493977 7.146143293689447 7.1461432936894465 0 0 0
680 1 -7.145815768506021 7.146143293689447 7.1461432936894465 0 0 0
699 1 -9.183712499999999 9.186158744210468 7.145336118382023 0 0 0
700 1 -11.222912624995518 11.226162375004481 7.145245229922771 0 0 0
704 1 -7.1445123750044806 11.226162375004481 7.145245229922771 0 0 0
818 1 -9.183712499999999 7.145336118382023 9.186158744210468 0 0 0
820 1 -11.222912624995518 7.145245229922771 11.226162375004481 0 0 0
824 1 -7.144512375004481 7.14524522992277 11.226162375004481 0 0 0
841 1 -11.222862572078103 9.186049588638246 9.186049588638245 0 0 0
842 1 -9.183712499999999 11.225759193127233 9.185593281517038 0 0 0
843 1 -9.183712499999999 9.185593281517038 11.225759193127233 0 0 0
844 1 -11.223393075066491 11.225681924933506 11.225681924933506 0 0 0
845 1 -7.144562427921894 9.186049588638246 9.186049588638246 0 0 0
848 1 -7.144031924933506 11.225681924933506 11.225681924933507 0 0 0
684 1 -3.0679547294733136 7.149604729473314 7.149604729473314 0 0 0
703 1 -5.105898619890794 9.187548619890793 7.146465604935659 0 0 0
707 1 -1.024969706561829 9.190702398761966 7.148886649413864 0 0 0
708 1 -3.0644932936894467 11.227465768506022 7.146143293689447 0 0 0
822 1 -5.105898619890793 7.146465604935659 9.187548619890794 0 0 0
826 1 -1.0249697065618293 7.148886649413864 9.190702398761966 0 0 0
828 1 -3.064493293689447 7.146143293689447 11.227465768506022 0 0 0
846 1 -5.1043995886382465 11.226212427921894 9.186049588638246 0 0 0
847 1 -5.104399588638246 9.186049588638246 11.226212427921894 0 0 0
849 1 -3.064815604935659 9.187548619890793 9.187548619890794 0 0 0
850 1 -1.022882714372064 11.22726588669916 9.187061421020255 0 0 0
851 1 -1.0228827143720642 9.187061421020255 11.22726588669916 0 0 0
852 1 -3.063595229922771 11.226162375004481 11.226162375004481 0 0 0
688 1 1.0138385598372002 7.153738824804395 7.153738824804396 0 0 0
692 1 5.108636440162799 7.153738824804396 7.153738824804395 0 0 0
711 1 3.0612375000000003 9.193778570670775 7.152665653609368 0 0 0
712 1 1.0188067468780702 11.22887313617866 7.147025935059352 0 0 0
716 1 5.103668253121929 11.228873136178658 7.147025935059352 0 0 0
830 1 3.0612374999999994 7.152665653609368 9.193778570670775 0 0 0
832 1 1.0188067468780706 7.147025935059351 11.22887313617866 0 0 0
836 1 5.1036682531219295 7.147025935059351 11.22887313617866 0 0 0
853 1 1.017989077318909 9.189426545449317 9.189426545449317 0 0 0
854 1 3.0612375 11.228209984823145 9.18805409732557 0 0 0
855 1 3.0612375 9.188054097325573 11.228209984823144 0 0 0
856 1 1.0190829038443512 11.226795118350442 11.226795118350442 0 0 0
857 1 5.104485922681091 9.189426545449317 9.189426545449317 0 0 0
860 1 5.103392096155648 11.226795118350442 11.226795118350442 0 0 0
696 1 9.190429729473314 7.149604729473314 7.149604729473314 0 0 0
715 1 7.147444706561829 9.190702398761964 7.148886649413864 0 0 0
719 1 11.228373619890794 9.187548619890794 7.146465604935659 0 0 0
720 1 9.186968293689446 11.227465768506022 7.1461432936894465 0 0 0
834 1 7.14744470656183 7.148886649413864 9.190702398761964 0 0 0
838 1 11.228373619890794 7.146465604935659 9.187548619890793 0 0 0
840 1 9.186968293689446 7.1461432936894465 11.227465768506022 0 0 0
858 1 7.145357714372063 11.227265886699158 9.187061421020255 0 0 0
859 1 7.1453577143720635 9.187061421020255 11.22726588669916 0 0 0
861 1 9.187290604935658 9.187548619890793 9.187548619890793 0 0 0
862 1 11.226874588638246 11.226212427921894 9.186049588638245 0 0 0
863 1 11.226874588638246 9.186049588638246 11.226212427921894 0 0 0
864 1 9.186070229922771 11.226162375004481 11.226162375004481 0 0 0

Velocities

1 0 0 0
2 0 0 0
3 0 0 0
4 0 0 0
5 0 0 0
8 0 0 0
25 0 0 0
27 0 0 0
29 0 0 0
145 0 0 0
146 0 0 0
149 0 0 0
169 0 0 0
173 0 0 0
6 0 0 0
7 0 0 0
9 0 0 0
10 0 0 0
11 0 0 0
12 0 0 0
31 0 0 0
33 0 0 0
35 0 0 0
150 0 0 0
153 0 0 0
154 0 0 0
177 0 0 0
13 0 0 0
14 0 0 0
15 0 0 0
16 0 0 0
17 0 0 0
20 0 0 0
37 0 0 0
39 0 0 0
41 0 0 0
157 0 0 0
158 0 0 0
161 0 0 0
181 0 0 0
185 0 0 0
18 0 0 0
19 0 0 0
21 0 0 0
22 0 0 0
23 0 0 0
24 0 0 0
43 0 0 0
45 0 0 0
47 0 0 0
162 0 0 0
165 0 0 0
166 0 0 0
189 0 0 0
26 0 0 0
28 0 0 0
32 0 0 0
49 0 0 0
50 0 0 0
51 0 0 0
52 0 0 0
53 0 0 0
56 0 0 0
170 0 0 0
193 0 0 0
194 0 0 0
197 0 0 0
30 0 0 0
34 0 0 0
36 0 0 0
54 0 0 0
55 0 0 0
57 0 0 0
58 0 0 0
59 0 0 0
60 0 0 0
174 0 0 0
178 0 0 0
198 0 0 0
201 0 0 0
202 0 0 0
38 0 0 0
40 0 0 0
44 0 0 0
61 0 0 0
62 0 0 0
63 0 0 0
64 0 0 0
65 0 0 0
68 0 0 0
182 0 0 0
205 0 0 0
206 0 0 0
209 0 0 0
42 0 0 0
46 0 0 0
48 0 0 0
66 0 0 0
67 0 0 0
69 0 0 0
70 0 0 0
71 0 0 0
72 0 0 0
186 0 0 0
190 0 0 0
210 0 0 0
213 0 0 0
214 0 0 0
73 0 0 0
74 0 0 0
75 0 0 0
76 0 0 0
77 0 0 0
80 0 0 0
97 0 0 0
99 0 0 0
101 0 0 0
217 0 0 0
218 0 0 0
221 0 0 0
241 0 0 0
245 0 0 0
78 0 0 0
79 0 0 0
81 0 0 0
82 0 0 0
83 0 0 0
84 0 0 0
103 0 0 0
105 0 0 0
107 0 0 0
222 0 0 0
225 0 0 0
226 0 0 0
249 0 0 0
85 0 0 0
86 0 0 0
87 0 0 0
88 0 0 0
89 0 0 0
92 0 0 0
109 0 0 0
111 0 0 0
113 0 0 0
229 0 0 0
230 0 0 0
233 0 0 0
253 0 0 0
257 0 0 0
90 0 0 0
91 0 0 0
93 0 0 0
94 0 0 0
95 0 0 0
96 0 0 0
115 0 0 0
117 0 0 0
119 0 0 0
234 0 0 0
237 0 0 0
238 0 0 0
261 0 0 0
98 0 0 0
100 0 0 0
104 0 0 0
121 0 0 0
122 0 0 0
123 0 0 0
124 0 0 0
125 0 0 0
128 0 0 0
242 0 0 0
265 0 0 0
266 0 0 0
269 0 0 0
102 0 0 0
106 0 0 0
108 0 0 0
126 0 0 0
127 0 0 0
129 0 0 0
130 0 0 0
131 0 0 0
132 0 0 0
246 0 0 0
250 0 0 0
270 0 0 0
273 0 0 0
274 0 0 0
110 0 0 0
112 0 0 0
116 0 0 0
133 0 0 0
134 0 0 0
135 0 0 0
136 0 0 0
137 0 0 0
140 0 0 0
254 0 0 0
277 0 0 0
278 0 0 0
281 0 0 0
114 0 0 0
118 0 0 0
120 0 0 0
138 0 0 0
139 0 0 0
141 0 0 0
142 0 0 0
143 0 0 0
144 0 0 0
258 0 0 0
262 0 0 0
282 0 0 0
285 0 0 0
286 0 0 0
147 0 0 0
148 0 0 0
152 0 0 0
171 0 0 0
289 0 0 0
290 0 0 0
291 0 0 0
292 0 0 0
293 0 0 0
296 0 0 0
313 0 0 0
315 0 0 0
317 0 0 0
151 0 0 0
155 0 0 0
156 0 0 0
175 0 0 0
179 0 0 0
294 0 0 0
295 0 0 0
297 0 0 0
298 0 0 0
299 0 0 0
300 0 0 0
319 0 0 0
321 0 0 0
323 0 0 0
159 0 0 0
160 0 0 0
164 0 0 0
183 0 0 0
301 0 0 0
302 0 0 0
303 0 0 0
304 0 0 0
305 0 0 0
308 0 0 0
325 0 0 0
327 0 0 0
329 0 0 0
163 0 0 0
167 0 0 0
168 0 0 0
187 0 0 0
191 0 0 0
306 0 0 0
307 0 0 0
309 0 0 0
310 0 0 0
311 0 0 0
312 0 0 0
331 0 0 0
333 0 0 0
335 0 0 0
172 0 0 0
176 0 0 0
195 0 0 0
196 0 0 0
200 0 0 0
314 0 0 0
316 0 0 0
320 0 0 0
337 0 0 0
338 0 0 0
339 0 0 0
340 0 0 0
341 0 0 0
344 0 0 0
180 0 0 0
199 0 0 0
203 0 0 0
204 0 0 0
318 0 0 0
322 0 0 0
324 0 0 0
342 0 0 0
343 0 0 0
345 0 0 0
346 0 0 0
347 0 0 0
348 0 0 0
184 0 0 0
188 0 0 0
207 0 0 0
208 0 0 0
212 0 0 0
326 0 0 0
328 0 0 0
332 0 0 0
349 0 0 0
350 0 0 0
351 0 0 0
352 0 0 0
353 0 0 0
356 0 0 0
192 0 0 0
211 0 0 0
215 0 0 0
216 0 0 0
330 0 0 0
334 0 0 0
336 0 0 0
354 0 0 0
355 0 0 0
357 0 0 0
358 0 0 0
359 0 0 0
360 0 0 0
219 0 0 0
220 0 0 0
224 0 0 0
243 0 0 0
361 0 0 0
362 0 0 0
363 0 0 0
364 0 0 0
365 0 0 0
368 0 0 0
385 0 0 0
387 0 0 0
389 0 0 0
223 0 0 0
227 0 0 0
228 0 0 0
247 0 0 0
251 0 0 0
366 0 0 0
367 0 0 0
369 0 0 0
370 0 0 0
371 0 0 0
372 0 0 0
391 0 0 0
393 0 0 0
395 0 0 0
231 0 0 0
232 0 0 0
236 0 0 0
255 0 0 0
373 0 0 0
374 0 0 0
375 0 0 0
376 0 0 0
377 0 0 0
380 0 0 0
397 0 0 0
399 0 0 0
401 0 0 0
235 0 0 0
239 0 0 0
240 0 0 0
259 0 0 0
263 0 0 0
378 0 0 0
379 0 0 0
381 0 0 0
382 0 0 0
383 0 0 0
384 0 0 0
403 0 0 0
405 0 0 0
407 0 0 0
244 0 0 0
248 0 0 0
267 0 0 0
268 0 0 0
272 0 0 0
386 0 0 0
388 0 0 0
392 0 0 0
409 0 0 0
410 0 0 0
411 0 0 0
412 0 0 0
413 0 0 0
416 0 0 0
252 0 0 0
271 0 0 0
275 0 0 0
276 0 0 0
390 0 0 0
394 0 0 0
396 0 0 0
414 0 0 0
415 0 0 0
417 0 0 0
418 0 0 0
419 0 0 0
420 0 0 0
256 0 0 0
260 0 0 0
279 0 0 0
280 0 0 0
284 0 0 0
398 0 0 0
400 0 0 0
404 0 0 0
421 0 0 0
422 0 0 0
423 0 0 0
424 0 0 0
425 0 0 0
428 0 0 0
264 0 0 0
283 0 0 0
287 0 0 0
288 0 0 0
402 0 0 0
406 0 0 0
408 0 0 0
426 0 0 0
427 0 0 0
429 0 0 0
430 0 0 0
431 0 0 0
432 0 0 0
433 0 0 0
434 0 0 0
435 0 0 0
436 0 0 0
437 0 0 0
440 0 0 0
457 0 0 0
459 0 0 0
461 0 0 0
577 0 0 0
578 0 0 0
581 0 0 0
601 0 0 0
605 0 0 0
438 0 0 0
439 0 0 0
441 0 0 0
442 0 0 0
443 0 0 0
444 0 0 0
463 0 0 0
465 0 0 0
467 0 0 0
582 0 0 0
585 0 0 0
586 0 0 0
609 0 0 0
445 0 0 0
446 0 0 0
447 0 0 0
448 0 0 0
449 0 0 0
452 0 0 0
469 0 0 0
471 0 0 0
473 0 0 0
589 0 0 0
590 0 0 0
593 0 0 0
613 0 0 0
617 0 0 0
450 0 0 0
451 0 0 0
453 0 0 0
454 0 0 0
455 0 0 0
456 0 0 0
475 0 0 0
477 0 0 0
479 0 0 0
594 0 0 0
597 0 0 0
598 0 0 0
621 0 0 0
458 0 0 0
460 0 0 0
464 0 0 0
481 0 0 0
482 0 0 0
483 0 0 0
484 0 0 0
485 0 0 0
488 0 0 0
602 0 0 0
625 0 0 0
626 0 0 0
629 0 0 0
462 0 0 0
466 0 0 0
468 0 0 0
486 0 0 0
487 0 0 0
489 0 0 0
490 0 0 0
491 0 0 0
492 0 0 0
606 0 0 0
610 0 0 0
630 0 0 0
633 0 0 0
634 0 0 0
470 0 0 0
472 0 0 0
476 0 0 0
493 0 0 0
494 0 0 0
495 0 0 0
496 0 0 0
497 0 0 0
500 0 0 0
614 0 0 0
637 0 0 0
638 0 0 0
641 0 0 0
474 0 0 0
478 0 0 0
480 0 0 0
498 0 0 0
499 0 0 0
501 0 0 0
502 0 0 0
503 0 0 0
504 0 0 0
618 0 0 0
622 0 0 0
642 0 0 0
645 0 0 0
646 0 0 0
505 0 0 0
506 0 0 0
507 0 0 0
508 0 0 0
509 0 0 0
512 0 0 0
529 0 0 0
531 0 0 0
533 0 0 0
649 0 0 0
650 0 0 0
653 0 0 0
673 0 0 0
677 0 0 0
510 0 0 0
511 0 0 0
513 0 0 0
514 0 0 0
515 0 0 0
516 0 0 0
535 0 0 0
537 0 0 0
539 0 0 0
654 0 0 0
657 0 0 0
658 0 0 0
681 0 0 0
517 0 0 0
518 0 0 0
519 0 0 0
520 0 0 0
521 0 0 0
524 0 0 0
541 0 0 0
543 0 0 0
545 0 0 0
661 0 0 0
662 0 0 0
665 0 0 0
685 0 0 0
689 0 0 0
865 0 0 0
522 0 0 0
523 0 0 0
525 0 0 0
526 0 0 0
527 0 0 0
528 0 0 0
547 0 0 0
549 0 0 0
551 0 0 0
666 0 0 0
669 0 0 0
670 0 0 0
693 0 0 0
530 0 0 0
532 0 0 0
536 0 0 0
553 0 0 0
554 0 0 0
555 0 0 0
556 0 0 0
557 0 0 0
560 0 0 0
674 0 0 0
697 0 0 0
698 0 0 0
701 0 0 0
534 0 0 0
538 0 0 0
540 0 0 0
558 0 0 0
559 0 0 0
561 0 0 0
562 0 0 0
563 0 0 0
564 0 0 0
678 0 0 0
682 0 0 0
702 0 0 0
705 0 0 0
706 0 0 0
542 0 0 0
544 0 0 0
548 0 0 0
565 0 0 0
566 0 0 0
567 0 0 0
568 0 0 0
569 0 0 0
572 0 0 0
686 0 0 0
709 0 0 0
710 0 0 0
713 0 0 0
546 0 0 0
550 0 0 0
552 0 0 0
570 0 0 0
571 0 0 0
573 0 0 0
574 0 0 0
575 0 0 0
576 0 0 0
690 0 0 0
694 0 0 0
714 0 0 0
717 0 0 0
718 0 0 0
579 0 0 0
580 0 0 0
584 0 0 0
603 0 0 0
721 0 0 0
722 0 0 0
723 0 0 0
724 0 0 0
725 0 0 0
728 0 0 0
745 0 0 0
747 0 0 0
749 0 0 0
583 0 0 0
587 0 0 0
588 0 0 0
607 0 0 0
611 0 0 0
726 0 0 0
727 0 0 0
729 0 0 0
730 0 0 0
731 0 0 0
732 0 0 0
751 0 0 0
753 0 0 0
755 0 0 0
591 0 0 0
592 0 0 0
596 0 0 0
615 0 0 0
733 0 0 0
734 0 0 0
735 0 0 0
736 0 0 0
737 0 0 0
740 0 0 0
757 0 0 0
759 0 0 0
761 0 0 0
595 0 0 0
599 0 0 0
600 0 0 0
619 0 0 0
623 0 0 0
738 0 0 0
739 0 0 0
741 0 0 0
742 0 0 0
743 0 0 0
744 0 0 0
763 0 0 0
765 0 0 0
767 0 0 0
604 0 0 0
608 0 0 0
627 0 0 0
628 0 0 0
632 0 0 0
746 0 0 0
748 0 0 0
752 0 0 0
769 0 0 0
770 0 0 0
771 0 0 0
772 0 0 0
773 0 0 0
776 0 0 0
612 0 0 0
631 0 0 0
635 0 0 0
636 0 0 0
750 0 0 0
754 0 0 0
756 0 0 0
774 0 0 0
775 0 0 0
777 0 0 0
778 0 0 0
779 0 0 0
780 0 0 0
616 0 0 0
620 0 0 0
639 0 0 0
640 0 0 0
644 0 0 0
758 0 0 0
760 0 0 0
764 0 0 0
781 0 0 0
782 0 0 0
783 0 0 0
784 0 0 0
785 0 0 0
788 0 0 0
624 0 0 0
643 0 0 0
647 0 0 0
648 0 0 0
762 0 0 0
766 0 0 0
768 0 0 0
786 0 0 0
787 0 0 0
789 0 0 0
790 0 0 0
791 0 0 0
792 0 0 0
651 0 0 0
652 0 0 0
656 0 0 0
675 0 0 0
793 0 0 0
794 0 0 0
795 0 0 0
796 0 0 0
797 0 0 0
800 0 0 0
817 0 0 0
819 0 0 0
821 0 0 0
655 0 0 0
659 0 0 0
660 0 0 0
679 0 0 0
683 0 0 0
798 0 0 0
799 0 0 0
801 0 0 0
802 0 0 0
803 0 0 0
804 0 0 0
823 0 0 0
825 0 0 0
827 0 0 0
663 0 0 0
664 0 0 0
668 0 0 0
687 0 0 0
805 0 0 0
806 0 0 0
807 0 0 0
808 0 0 0
809 0 0 0
812 0 0 0
829 0 0 0
831 0 0 0
833 0 0 0
667 0 0 0
671 0 0 0
672 0 0 0
691 0 0 0
695 0 0 0
810 0 0 0
811 0 0 0
813 0 0 0
814 0 0 0
815 0 0 0
816 0 0 0
835 0 0 0
837 0 0 0
839 0 0 0
676 0 0 0
680 0 0 0
699 0 0 0
700 0 0 0
704 0 0 0
818 0 0 0
820 0 0 0
824 0 0 0
841 0 0 0
842 0 0 0
843 0 0 0
844 0 0 0
845 0 0 0
848 0 0 0
684 0 0 0
703 0 0 0
707 0 0 0
708 0 0 0
822 0 0 0
826 0 0 0
828 0 0 0
846 0 0 0
847 0 0 0
849 0 0 0
850 0 0 0
851 0 0 0
852 0 0 0
688 0 0 0
692 0 0 0
711 0 0 0
712 0 0 0
716 0 0 0
830 0 0 0
832 0 0 0
836 0 0 0
853 0 0 0
854 0 0 0
855 0 0 0
856 0 0 0
857 0 0 0
860 0 0 0
696 0 0 0
715 0 0 0
719 0 0 0
720 0 0 0
834 0 0 0
838 0 0 0
840 0 0 0
858 0 0 0
859 0 0 0
861 0 0 0
862 0 0 0
863 0 0 0
864 0 0 0
