# LAMMPS Input File
# Licensed under CC BY 4.0
# A Set of Materials-Science Tutorials for the LAMMPS Simulation Package
# Modernized recreation of the MSU/CAVS tutorials by Mark A. Tschopp
# Tutorial 7: generalized stacking fault energy (gamma-line) of fcc aluminum.
#
# A (111)-oriented slab is cut in two along a (111) plane.  The upper half is
# rigidly displaced along the [11-2] direction by increasing fractions of the
# in-plane lattice repeat; at each displacement the atoms are relaxed ONLY
# perpendicular to the fault plane (in z), and the excess energy per unit area
# is the generalized stacking fault energy gamma.  Tracing gamma versus the
# displacement gives the gamma-line, whose local minimum is the intrinsic
# stacking fault energy (ISF) and whose first maximum is the unstable stacking
# fault energy (USF).
#
# Strategy (compare Tutorials 2 and 6): the ideal slab is written once to a
# data file; a loop then reloads it, applies the TOTAL shift for that step,
# relaxes, and appends one record to a structured YAML file.  Reloading the
# ideal slab every step keeps the displacements independent (no drift).

# crystallographic orientation: x=[1-10], y=[11-2], z=[111] (the fault normal)
# Material is selected through three index variables, so the identical script
# runs any fcc metal by overriding them (GUI "Set Variables" dialog or -var):
#   default (aluminum):  Al_zhou.eam.alloy, element Al, a0 = 4.08165 Ang
#   copper:  -var pot Cu_mishin1.eam.alloy -var elem Cu -var lat 3.61493
variable pot  index Al_zhou.eam.alloy
variable elem index Al
variable lat  index 4.08165          # relaxed lattice constant (Angstrom)

units metal
boundary p p s                       # free surfaces in z: a single fault plane
atom_style atomic
lattice fcc ${lat} orient x 1 -1 0 orient y 1 1 -2 orient z 1 1 1
# The in-plane lattice repeat along [11-2] is a0*sqrt(6)/2; LAMMPS' oriented
# y-cell is 4/3 of it, so the box is commensurate with the shifted crystal
# only when the number of y-cells is a multiple of 3 (here 6 = 8 repeats).
# A non-multiple gives a strained, artificially high stacking-fault energy.
region box block 0 4 0 6 0 8
create_box 1 box
create_atoms 1 box
pair_style eam/alloy
pair_coeff * * ${pot} ${elem}
write_data slab.data

# one in-plane repeat along [11-2] is a0*sqrt(6)/2; the Shockley partial that
# creates the intrinsic stacking fault is one third of it, b_p = a0/sqrt(6).
# The fault plane is placed in a (111) gap near the slab middle; its height
# scales with the (111) interlayer spacing a0/sqrt(3).
variable period equal ${lat}*sqrt(6.0)/2.0
variable zcut   equal 11.5*${lat}/sqrt(3.0)
variable np equal 25                 # number of displacement steps over one period
variable conv equal 16021.766        # eV/Ang^2 -> mJ/m^2

print "# gamma-line of fcc ${elem} (${pot}), shift along [11-2] on (111)" file gsfe.yaml screen no
print "# shift in Angstrom; pe in eV; area in Ang^2; period = ${period} Ang" append gsfe.yaml screen no

variable k loop 0 ${np}
label loop
  clear
  units metal
  boundary p p s
  atom_style atomic
  read_data slab.data
  pair_style eam/alloy
  pair_coeff * * ${pot} ${elem}

  # upper half: everything above a (111) gap near the middle of the slab
  region rup block INF INF INF INF ${zcut} INF units box
  group upper region rup

  # rigid shift of the upper half by the total displacement for this step
  variable shift equal ${k}*${period}/${np}
  displace_atoms upper move 0.0 ${shift} 0.0 units box

  # relax atoms perpendicular to the fault only (zero the in-plane forces)
  fix frz all setforce 0.0 0.0 NULL
  min_style cg
  minimize 1.0e-8 1.0e-8 1000 10000

  variable area equal lx*ly
  print "- {shift: $(v_shift:%.4f), pe: $(pe:%.6f), area: $(v_area:%.4f)}" &
      append gsfe.yaml screen no
  next k
  jump SELF loop

print "gamma-line scan complete; results written to gsfe.yaml"
