# LAMMPS Input File
# Licensed under CC BY 4.0
# A Set of Materials-Science Tutorials for the LAMMPS Simulation Package: 2. Materials Science
# By Simon Gravelle, Mark A. Tschopp, Jacob R. Gissinger, and Axel Kohlmeyer
# Tutorial 1: 2c. Minimization and box relaxation with MEAM potential

# 1) Initialization
units metal
dimension 3
boundary p p p
atom_style atomic

# 2) System definition
lattice fcc 4.049
region box block 0 4 0 4 0 4
create_box 1 box
create_atoms 1 box

# 3) Settings
pair_style meam
pair_coeff * * library.meam AlS SiS MgS CuS FeS AlSiMgCuFe.meam AlS

compute eng all pe/atom
compute eatoms all reduce sum c_eng

# 4) Monitoring
thermo 10
thermo_style custom step pe c_eatoms press lx pxx pyy pzz

# 5) Run
fix relax all box/relax iso 0.0 vmax 0.001
min_style cg
minimize 1.0e-12 1.0e-12 10000 100000

# results
variable ncell  equal 4
variable a0     equal lx/v_ncell
variable ecoh equal pe/count(all)
print "------- MEAM: AlSiMgCuFe.meam AlS ------------------"
print "Number of atoms        = $(count(all))"
print "Equilibrium a0 (Ang)   = ${a0}"
print "Cohesive energy (eV)   = ${ecoh}"
print "----------------------------------------------------"
