pair_style tersoff
pair_coeff * * Si.tersoff Si
