pair_style meam/spline
pair_coeff * * Si_1.meam.spline Si
